 &control
    calculation        =  'nscf'
    pseudo_dir      =  '/home/alm100/lib/pseudopotential/ncpp'
    outdir             =  './qe-tmp'
    iprint             =   2
    verbosity          =  'high'
/
 &system
    ibrav              =    2
    celldm(1)          =   10.2
    nat                =    2
    ntyp               =    1
    ecutwfc            =   60.0
    nbnd               =   4
/
 &electrons
    conv_thr           =   1.0d-12
    diagonalization    =  'cg'
    diago_full_acc     =  .true.
/

ATOMIC_SPECIES
 Si  28  Si_ONCV_PBE_sr.upf

ATOMIC_POSITIONS {crystal}
Si  -0.125   0.375   -0.125
Si   0.125  -0.375    0.125

K_POINTS crystal
64
  0.00000000  0.00000000  0.00000000  1.562500e-02 
  0.00000000  0.00000000  0.25000000  1.562500e-02 
  0.00000000  0.00000000  0.50000000  1.562500e-02 
  0.00000000  0.00000000  0.75000000  1.562500e-02 
  0.00000000  0.25000000  0.00000000  1.562500e-02 
  0.00000000  0.25000000  0.25000000  1.562500e-02 
  0.00000000  0.25000000  0.50000000  1.562500e-02 
  0.00000000  0.25000000  0.75000000  1.562500e-02 
  0.00000000  0.50000000  0.00000000  1.562500e-02 
  0.00000000  0.50000000  0.25000000  1.562500e-02 
  0.00000000  0.50000000  0.50000000  1.562500e-02 
  0.00000000  0.50000000  0.75000000  1.562500e-02 
  0.00000000  0.75000000  0.00000000  1.562500e-02 
  0.00000000  0.75000000  0.25000000  1.562500e-02 
  0.00000000  0.75000000  0.50000000  1.562500e-02 
  0.00000000  0.75000000  0.75000000  1.562500e-02 
  0.25000000  0.00000000  0.00000000  1.562500e-02 
  0.25000000  0.00000000  0.25000000  1.562500e-02 
  0.25000000  0.00000000  0.50000000  1.562500e-02 
  0.25000000  0.00000000  0.75000000  1.562500e-02 
  0.25000000  0.25000000  0.00000000  1.562500e-02 
  0.25000000  0.25000000  0.25000000  1.562500e-02 
  0.25000000  0.25000000  0.50000000  1.562500e-02 
  0.25000000  0.25000000  0.75000000  1.562500e-02 
  0.25000000  0.50000000  0.00000000  1.562500e-02 
  0.25000000  0.50000000  0.25000000  1.562500e-02 
  0.25000000  0.50000000  0.50000000  1.562500e-02 
  0.25000000  0.50000000  0.75000000  1.562500e-02 
  0.25000000  0.75000000  0.00000000  1.562500e-02 
  0.25000000  0.75000000  0.25000000  1.562500e-02 
  0.25000000  0.75000000  0.50000000  1.562500e-02 
  0.25000000  0.75000000  0.75000000  1.562500e-02 
  0.50000000  0.00000000  0.00000000  1.562500e-02 
  0.50000000  0.00000000  0.25000000  1.562500e-02 
  0.50000000  0.00000000  0.50000000  1.562500e-02 
  0.50000000  0.00000000  0.75000000  1.562500e-02 
  0.50000000  0.25000000  0.00000000  1.562500e-02 
  0.50000000  0.25000000  0.25000000  1.562500e-02 
  0.50000000  0.25000000  0.50000000  1.562500e-02 
  0.50000000  0.25000000  0.75000000  1.562500e-02 
  0.50000000  0.50000000  0.00000000  1.562500e-02 
  0.50000000  0.50000000  0.25000000  1.562500e-02 
  0.50000000  0.50000000  0.50000000  1.562500e-02 
  0.50000000  0.50000000  0.75000000  1.562500e-02 
  0.50000000  0.75000000  0.00000000  1.562500e-02 
  0.50000000  0.75000000  0.25000000  1.562500e-02 
  0.50000000  0.75000000  0.50000000  1.562500e-02 
  0.50000000  0.75000000  0.75000000  1.562500e-02 
  0.75000000  0.00000000  0.00000000  1.562500e-02 
  0.75000000  0.00000000  0.25000000  1.562500e-02 
  0.75000000  0.00000000  0.50000000  1.562500e-02 
  0.75000000  0.00000000  0.75000000  1.562500e-02 
  0.75000000  0.25000000  0.00000000  1.562500e-02 
  0.75000000  0.25000000  0.25000000  1.562500e-02 
  0.75000000  0.25000000  0.50000000  1.562500e-02 
  0.75000000  0.25000000  0.75000000  1.562500e-02 
  0.75000000  0.50000000  0.00000000  1.562500e-02 
  0.75000000  0.50000000  0.25000000  1.562500e-02 
  0.75000000  0.50000000  0.50000000  1.562500e-02 
  0.75000000  0.50000000  0.75000000  1.562500e-02 
  0.75000000  0.75000000  0.00000000  1.562500e-02 
  0.75000000  0.75000000  0.25000000  1.562500e-02 
  0.75000000  0.75000000  0.50000000  1.562500e-02 
  0.75000000  0.75000000  0.75000000  1.562500e-02 

