 &control
    calculation     =  'scf'
    restart_mode    =  'from_scratch'
    pseudo_dir      =  '/home/alm100/lib/pseudopotential/ncpp'
    outdir          =  './qe-tmp'
    iprint          =   2
/
 &system
    ibrav           =  2
    celldm(1)       =  10.2
    nat             =  2
    ntyp            =  1
    !nbnd            =  5
    ecutwfc         =  60.0
/
 &electrons
    conv_thr        =   1.0d-12
    diagonalization =  'cg'
/
ATOMIC_SPECIES
 Si  28  Si_ONCV_PBE_sr.upf
ATOMIC_POSITIONS {crystal}
Si  -0.125   0.375   -0.125
Si   0.125  -0.375    0.125
K_POINTS {automatic}
8 8 8 0 0 0
