&inputpp
  outdir     =  './qe-tmp'
  prefix     =  'pwscf'
  seedname   =  'wan'
  write_amn  = .true.
  write_mmn  = .true.
  !write_unk  = .true.
  ! SCDM keywords
  scdm_proj         = true
  scdm_entanglement = 'isolated'
!  scdm_mu    = 10
!  scdm_sigma = 4
/
