 &control
    calculation     =  'scf'
    restart_mode    =  'from_scratch'
    !pseudo_dir      =  '/home/alm100/opt/wan90_1-2/pseudo'
    pseudo_dir      =  '/home/alm100/lib/pseudopotential/ncpp'
    outdir          =  './qe-tmp'
    iprint          =   2
/
 &system
    ibrav           =  2
    celldm(1)       =  40.8
    nat             =  128
    ntyp            =  1
    !nbnd            =  5
    ecutwfc         =  60.0
/
 &electrons
    conv_thr        =   1.0d-12
    diagonalization =  'david'
/
K_POINTS {automatic}
2 2 2 0 0 0
ATOMIC_SPECIES
 Si  28  Si_ONCV_PBE_sr.upf
ATOMIC_POSITIONS (crystal)
 Si  -0.031250   0.093750  -0.031250
 Si   0.031250  -0.093750   0.031250
 Si  -0.031250   0.093750   0.218750
 Si   0.031250  -0.093750   0.281250
 Si  -0.031250   0.093750   0.468750
 Si   0.031250  -0.093750   0.531250
 Si  -0.031250   0.093750   0.718750
 Si   0.031250  -0.093750   0.781250
 Si  -0.031250   0.343750  -0.031250
 Si   0.031250   0.156250   0.031250
 Si  -0.031250   0.343750   0.218750
 Si   0.031250   0.156250   0.281250
 Si  -0.031250   0.343750   0.468750
 Si   0.031250   0.156250   0.531250
 Si  -0.031250   0.343750   0.718750
 Si   0.031250   0.156250   0.781250
 Si  -0.031250   0.593750  -0.031250
 Si   0.031250   0.406250   0.031250
 Si  -0.031250   0.593750   0.218750
 Si   0.031250   0.406250   0.281250
 Si  -0.031250   0.593750   0.468750
 Si   0.031250   0.406250   0.531250
 Si  -0.031250   0.593750   0.718750
 Si   0.031250   0.406250   0.781250
 Si  -0.031250   0.843750  -0.031250
 Si   0.031250   0.656250   0.031250
 Si  -0.031250   0.843750   0.218750
 Si   0.031250   0.656250   0.281250
 Si  -0.031250   0.843750   0.468750
 Si   0.031250   0.656250   0.531250
 Si  -0.031250   0.843750   0.718750
 Si   0.031250   0.656250   0.781250
 Si   0.218750   0.093750  -0.031250
 Si   0.281250  -0.093750   0.031250
 Si   0.218750   0.093750   0.218750
 Si   0.281250  -0.093750   0.281250
 Si   0.218750   0.093750   0.468750
 Si   0.281250  -0.093750   0.531250
 Si   0.218750   0.093750   0.718750
 Si   0.281250  -0.093750   0.781250
 Si   0.218750   0.343750  -0.031250
 Si   0.281250   0.156250   0.031250
 Si   0.218750   0.343750   0.218750
 Si   0.281250   0.156250   0.281250
 Si   0.218750   0.343750   0.468750
 Si   0.281250   0.156250   0.531250
 Si   0.218750   0.343750   0.718750
 Si   0.281250   0.156250   0.781250
 Si   0.218750   0.593750  -0.031250
 Si   0.281250   0.406250   0.031250
 Si   0.218750   0.593750   0.218750
 Si   0.281250   0.406250   0.281250
 Si   0.218750   0.593750   0.468750
 Si   0.281250   0.406250   0.531250
 Si   0.218750   0.593750   0.718750
 Si   0.281250   0.406250   0.781250
 Si   0.218750   0.843750  -0.031250
 Si   0.281250   0.656250   0.031250
 Si   0.218750   0.843750   0.218750
 Si   0.281250   0.656250   0.281250
 Si   0.218750   0.843750   0.468750
 Si   0.281250   0.656250   0.531250
 Si   0.218750   0.843750   0.718750
 Si   0.281250   0.656250   0.781250
 Si   0.468750   0.093750  -0.031250
 Si   0.531250  -0.093750   0.031250
 Si   0.468750   0.093750   0.218750
 Si   0.531250  -0.093750   0.281250
 Si   0.468750   0.093750   0.468750
 Si   0.531250  -0.093750   0.531250
 Si   0.468750   0.093750   0.718750
 Si   0.531250  -0.093750   0.781250
 Si   0.468750   0.343750  -0.031250
 Si   0.531250   0.156250   0.031250
 Si   0.468750   0.343750   0.218750
 Si   0.531250   0.156250   0.281250
 Si   0.468750   0.343750   0.468750
 Si   0.531250   0.156250   0.531250
 Si   0.468750   0.343750   0.718750
 Si   0.531250   0.156250   0.781250
 Si   0.468750   0.593750  -0.031250
 Si   0.531250   0.406250   0.031250
 Si   0.468750   0.593750   0.218750
 Si   0.531250   0.406250   0.281250
 Si   0.468750   0.593750   0.468750
 Si   0.531250   0.406250   0.531250
 Si   0.468750   0.593750   0.718750
 Si   0.531250   0.406250   0.781250
 Si   0.468750   0.843750  -0.031250
 Si   0.531250   0.656250   0.031250
 Si   0.468750   0.843750   0.218750
 Si   0.531250   0.656250   0.281250
 Si   0.468750   0.843750   0.468750
 Si   0.531250   0.656250   0.531250
 Si   0.468750   0.843750   0.718750
 Si   0.531250   0.656250   0.781250
 Si   0.718750   0.093750  -0.031250
 Si   0.781250  -0.093750   0.031250
 Si   0.718750   0.093750   0.218750
 Si   0.781250  -0.093750   0.281250
 Si   0.718750   0.093750   0.468750
 Si   0.781250  -0.093750   0.531250
 Si   0.718750   0.093750   0.718750
 Si   0.781250  -0.093750   0.781250
 Si   0.718750   0.343750  -0.031250
 Si   0.781250   0.156250   0.031250
 Si   0.718750   0.343750   0.218750
 Si   0.781250   0.156250   0.281250
 Si   0.718750   0.343750   0.468750
 Si   0.781250   0.156250   0.531250
 Si   0.718750   0.343750   0.718750
 Si   0.781250   0.156250   0.781250
 Si   0.718750   0.593750  -0.031250
 Si   0.781250   0.406250   0.031250
 Si   0.718750   0.593750   0.218750
 Si   0.781250   0.406250   0.281250
 Si   0.718750   0.593750   0.468750
 Si   0.781250   0.406250   0.531250
 Si   0.718750   0.593750   0.718750
 Si   0.781250   0.406250   0.781250
 Si   0.718750   0.843750  -0.031250
 Si   0.781250   0.656250   0.031250
 Si   0.718750   0.843750   0.218750
 Si   0.781250   0.656250   0.281250
 Si   0.718750   0.843750   0.468750
 Si   0.781250   0.656250   0.531250
 Si   0.718750   0.843750   0.718750
 Si   0.781250   0.656250   0.781250

