! Valence + conduction bands
num_wann     = 256
conv_tol     = 1.0d-10
conv_window  = 8
!trial_step   = 0.1
!fixed_step   = 0.02

num_iter     = 1000

iprint       = 3
write_xyz    = .true.
num_print_cycles = 1
write_u_matrices = .true.

! Automatic generation of initial projections
auto_projections = .true.
!use_bloch_phases = .true.

! SYSTEM
begin unit_cell_cart
 bohr
-20.4   0.00   20.4
 0.00   20.4   20.4
-20.4   20.4   0.00
end unit_cell_cart

! To plot the WF interpolated bandstructure
bands_plot       = .true.
bands_num_points = 200

begin kpoint_path
L 0.50000  0.50000 0.5000 G 0.00000  0.00000 0.0000
G 0.00000  0.00000 0.0000 X 0.50000  0.00000 0.5000
X 0.50000 -0.50000 0.0000 K 0.37500 -0.37500 0.0000
K 0.37500 -0.37500 0.0000 G 0.00000  0.00000 0.0000
end kpoint_path

! To plot the WFs
!restart                =  plot
!wannier_plot           =  true
wannier_plot_supercell =  4

! KPOINTS
mp_grid 1 1 1

begin kpoints
  0.00000000  0.00000000  0.00000000 
end kpoints

begin atoms_frac
 Si  -0.031250   0.093750  -0.031250
 Si   0.031250  -0.093750   0.031250
 Si  -0.031250   0.093750   0.218750
 Si   0.031250  -0.093750   0.281250
 Si  -0.031250   0.093750   0.468750
 Si   0.031250  -0.093750   0.531250
 Si  -0.031250   0.093750   0.718750
 Si   0.031250  -0.093750   0.781250
 Si  -0.031250   0.343750  -0.031250
 Si   0.031250   0.156250   0.031250
 Si  -0.031250   0.343750   0.218750
 Si   0.031250   0.156250   0.281250
 Si  -0.031250   0.343750   0.468750
 Si   0.031250   0.156250   0.531250
 Si  -0.031250   0.343750   0.718750
 Si   0.031250   0.156250   0.781250
 Si  -0.031250   0.593750  -0.031250
 Si   0.031250   0.406250   0.031250
 Si  -0.031250   0.593750   0.218750
 Si   0.031250   0.406250   0.281250
 Si  -0.031250   0.593750   0.468750
 Si   0.031250   0.406250   0.531250
 Si  -0.031250   0.593750   0.718750
 Si   0.031250   0.406250   0.781250
 Si  -0.031250   0.843750  -0.031250
 Si   0.031250   0.656250   0.031250
 Si  -0.031250   0.843750   0.218750
 Si   0.031250   0.656250   0.281250
 Si  -0.031250   0.843750   0.468750
 Si   0.031250   0.656250   0.531250
 Si  -0.031250   0.843750   0.718750
 Si   0.031250   0.656250   0.781250
 Si   0.218750   0.093750  -0.031250
 Si   0.281250  -0.093750   0.031250
 Si   0.218750   0.093750   0.218750
 Si   0.281250  -0.093750   0.281250
 Si   0.218750   0.093750   0.468750
 Si   0.281250  -0.093750   0.531250
 Si   0.218750   0.093750   0.718750
 Si   0.281250  -0.093750   0.781250
 Si   0.218750   0.343750  -0.031250
 Si   0.281250   0.156250   0.031250
 Si   0.218750   0.343750   0.218750
 Si   0.281250   0.156250   0.281250
 Si   0.218750   0.343750   0.468750
 Si   0.281250   0.156250   0.531250
 Si   0.218750   0.343750   0.718750
 Si   0.281250   0.156250   0.781250
 Si   0.218750   0.593750  -0.031250
 Si   0.281250   0.406250   0.031250
 Si   0.218750   0.593750   0.218750
 Si   0.281250   0.406250   0.281250
 Si   0.218750   0.593750   0.468750
 Si   0.281250   0.406250   0.531250
 Si   0.218750   0.593750   0.718750
 Si   0.281250   0.406250   0.781250
 Si   0.218750   0.843750  -0.031250
 Si   0.281250   0.656250   0.031250
 Si   0.218750   0.843750   0.218750
 Si   0.281250   0.656250   0.281250
 Si   0.218750   0.843750   0.468750
 Si   0.281250   0.656250   0.531250
 Si   0.218750   0.843750   0.718750
 Si   0.281250   0.656250   0.781250
 Si   0.468750   0.093750  -0.031250
 Si   0.531250  -0.093750   0.031250
 Si   0.468750   0.093750   0.218750
 Si   0.531250  -0.093750   0.281250
 Si   0.468750   0.093750   0.468750
 Si   0.531250  -0.093750   0.531250
 Si   0.468750   0.093750   0.718750
 Si   0.531250  -0.093750   0.781250
 Si   0.468750   0.343750  -0.031250
 Si   0.531250   0.156250   0.031250
 Si   0.468750   0.343750   0.218750
 Si   0.531250   0.156250   0.281250
 Si   0.468750   0.343750   0.468750
 Si   0.531250   0.156250   0.531250
 Si   0.468750   0.343750   0.718750
 Si   0.531250   0.156250   0.781250
 Si   0.468750   0.593750  -0.031250
 Si   0.531250   0.406250   0.031250
 Si   0.468750   0.593750   0.218750
 Si   0.531250   0.406250   0.281250
 Si   0.468750   0.593750   0.468750
 Si   0.531250   0.406250   0.531250
 Si   0.468750   0.593750   0.718750
 Si   0.531250   0.406250   0.781250
 Si   0.468750   0.843750  -0.031250
 Si   0.531250   0.656250   0.031250
 Si   0.468750   0.843750   0.218750
 Si   0.531250   0.656250   0.281250
 Si   0.468750   0.843750   0.468750
 Si   0.531250   0.656250   0.531250
 Si   0.468750   0.843750   0.718750
 Si   0.531250   0.656250   0.781250
 Si   0.718750   0.093750  -0.031250
 Si   0.781250  -0.093750   0.031250
 Si   0.718750   0.093750   0.218750
 Si   0.781250  -0.093750   0.281250
 Si   0.718750   0.093750   0.468750
 Si   0.781250  -0.093750   0.531250
 Si   0.718750   0.093750   0.718750
 Si   0.781250  -0.093750   0.781250
 Si   0.718750   0.343750  -0.031250
 Si   0.781250   0.156250   0.031250
 Si   0.718750   0.343750   0.218750
 Si   0.781250   0.156250   0.281250
 Si   0.718750   0.343750   0.468750
 Si   0.781250   0.156250   0.531250
 Si   0.718750   0.343750   0.718750
 Si   0.781250   0.156250   0.781250
 Si   0.718750   0.593750  -0.031250
 Si   0.781250   0.406250   0.031250
 Si   0.718750   0.593750   0.218750
 Si   0.781250   0.406250   0.281250
 Si   0.718750   0.593750   0.468750
 Si   0.781250   0.406250   0.531250
 Si   0.718750   0.593750   0.718750
 Si   0.781250   0.406250   0.781250
 Si   0.718750   0.843750  -0.031250
 Si   0.781250   0.656250   0.031250
 Si   0.718750   0.843750   0.218750
 Si   0.781250   0.656250   0.281250
 Si   0.718750   0.843750   0.468750
 Si   0.781250   0.656250   0.531250
 Si   0.718750   0.843750   0.718750
 Si   0.781250   0.656250   0.781250
end atoms_frac

